results/x-long/X-n115-k10.vrp_seed-33.out
12747	1010
