results/x/X-n115-k10.vrp_seed-33.vrp.sol
Route #1: 10
Route #2: 15 32 3 93 18 109 47 79 49 99 35 42 59
Route #3: 89 17 66 106 73 87 86 60 48 108 19 51 25 2 91 41 104
Route #4: 95 107 57 92 4 101 20 94 62 100 28
Route #5: 85 74 1 7 63 64
Route #6: 16 5 6
Route #7: 52 21 82 88 105 27 44 30 114 54 9 78 53 29 50
Route #8: 13 70 56 31 11 81 33 61 103 69
Route #9: 111 110 112 84 75 83 8 14 68 43 40 67 39 90 37 98 34 26 46
Route #10: 36 65 23 22 96 45 12 113 58 77 38 97 80 55 76 71 24 102 72
Cost 12747.000000